20
10 17
10 6
10 18
10 4
10 14
10 15
10 3
10 12
10 7
10 2
10 9
17 1
17 0
17 2
17 18
17 3
17 5
17 7
17 6
17 19
17 15
1 6
1 11
1 0
1 12
1 16
1 5
1 19
1 9
1 2
1 8
18 19
18 5
18 2
18 0
18 9
18 13
18 15
18 11
18 16
19 4
19 16
19 9
19 13
19 8
19 15
19 0
19 3
6 7
6 2
6 13
6 14
6 3
6 15
6 5
6 12
3 7
3 12
3 11
3 2
3 0
3 14
3 8
7 8
7 15
7 11
7 14
7 13
7 16
7 9
11 5
11 2
11 15
11 4
11 14
11 8
11 12
5 8
5 14
5 0
5 16
5 9
5 15
8 12
8 9
8 0
8 4
8 16
4 0
4 16
4 15
4 12
4 2
4 9
4 14
0 14
0 16
0 13
2 13
2 9
2 15
16 13
16 14
16 12
12 13
12 14
12 9
15 13
14 13
13 9
